NAME: rand_1/map2_180
TYPE: TSP
COMMENT: autogenerated using a wonderful map creator
DIMENSION: 210
EDGE_WEIGHT_TYPE: EUC_2D
NODE_COORD_SECTION
1 12.0 59.0
2 42.0 60.0
3 57.0 20.0
4 13.0 62.0
5 59.0 17.0
6 2.0 4.0
7 45.0 63.0
8 60.0 17.0
9 44.0 59.0
10 13.0 63.0
11 11.0 62.0
12 47.0 60.0
13 1.0 7.0
14 57.0 23.0
15 46.0 62.0
16 13.0 57.0
17 58.0 19.0
18 7.0 3.0
19 13.0 59.0
20 63.0 19.0
21 5.0 7.0
22 46.0 57.0
23 14.0 60.0
24 9.0 58.0
25 10.0 63.0
26 47.0 58.0
27 42.0 61.0
28 46.0 60.0
29 41.0 60.0
30 3.0 2.0
31 42.0 59.0
32 15.0 62.0
33 58.0 23.0
34 57.0 22.0
35 4.0 3.0
36 45.0 61.0
37 42.0 57.0
38 10.0 57.0
39 15.0 60.0
40 12.0 57.0
41 57.0 18.0
42 58.0 17.0
43 43.0 61.0
44 14.0 57.0
45 3.0 6.0
46 59.0 23.0
47 59.0 19.0
48 9.0 59.0
49 41.0 61.0
50 43.0 59.0
51 60.0 20.0
52 47.0 63.0
53 7.0 7.0
54 63.0 20.0
55 7.0 1.0
56 61.0 23.0
57 61.0 18.0
58 61.0 19.0
59 15.0 61.0
60 59.0 18.0
61 1.0 31.0
62 2.0 39.0
63 33.0 54.0
64 21.0 46.0
65 46.0 11.0
66 29.0 59.0
67 29.0 4.0
68 44.0 20.0
69 33.0 20.0
70 44.0 29.0
71 33.0 29.0
72 21.0 9.0
73 4.0 57.0
74 18.0 10.0
75 27.0 52.0
76 37.0 17.0
77 17.0 14.0
78 54.0 33.0
79 2.0 59.0
80 12.0 36.0
81 60.0 39.0
82 49.0 18.0
83 6.0 13.0
84 1.0 26.0
85 55.0 61.0
86 1.0 35.0
87 39.0 19.0
88 57.0 43.0
89 29.0 36.0
90 51.0 11.0
91 6.0 43.0
92 50.0 22.0
93 55.0 36.0
94 3.0 35.0
95 44.0 15.0
96 26.0 9.0
97 7.0 60.0
98 42.0 27.0
99 35.0 21.0
100 35.0 30.0
101 42.0 45.0
102 39.0 21.0
103 25.0 38.0
104 3.0 51.0
105 6.0 27.0
106 17.0 9.0
107 43.0 55.0
108 37.0 21.0
109 4.0 18.0
110 49.0 50.0
111 43.0 9.0
112 21.0 43.0
113 60.0 25.0
114 10.0 15.0
115 52.0 30.0
116 43.0 27.0
117 25.0 22.0
118 31.0 1.0
119 37.0 51.0
120 19.0 45.0
121 44.0 44.0
122 45.0 9.0
123 5.0 55.0
124 8.0 54.0
125 60.0 55.0
126 6.0 29.0
127 57.0 47.0
128 3.0 12.0
129 5.0 18.0
130 51.0 15.0
131 55.0 31.0
132 43.0 11.0
133 26.0 4.0
134 47.0 45.0
135 1.0 23.0
136 34.0 57.0
137 31.0 3.0
138 54.0 5.0
139 45.0 2.0
140 28.0 50.0
141 29.0 15.0
142 30.0 47.0
143 9.0 46.0
144 37.0 62.0
145 9.0 55.0
146 58.0 5.0
147 55.0 24.0
148 13.0 55.0
149 23.0 44.0
150 18.0 2.0
151 17.0 34.0
152 63.0 1.0
153 55.0 60.0
154 9.0 39.0
155 23.0 1.0
156 17.0 52.0
157 46.0 33.0
158 63.0 37.0
159 29.0 35.0
160 15.0 54.0
161 27.0 19.0
162 27.0 28.0
163 31.0 62.0
164 34.0 61.0
165 22.0 4.0
166 23.0 3.0
167 51.0 49.0
168 6.0 35.0
169 50.0 5.0
170 26.0 1.0
171 22.0 34.0
172 18.0 61.0
173 28.0 29.0
174 57.0 10.0
175 53.0 58.0
176 1.0 20.0
177 28.0 38.0
178 37.0 50.0
179 19.0 44.0
180 34.0 63.0
181 57.0 28.0
182 2.0 37.0
183 57.0 37.0
184 61.0 53.0
185 11.0 49.0
186 53.0 15.0
187 52.0 50.0
188 18.0 27.0
189 21.0 26.0
190 13.0 43.0
191 33.0 55.0
192 10.0 53.0
193 42.0 12.0
194 10.0 7.0
195 34.0 29.0
196 30.0 19.0
197 17.0 31.0
198 46.0 39.0
199 44.0 39.0
200 6.0 30.0
201 27.0 62.0
202 62.0 29.0
203 13.0 54.0
204 44.0 2.0
205 55.0 32.0
206 20.0 41.0
207 10.0 18.0
208 5.0 31.0
209 43.0 15.0
210 20.0 59.0
211 35.0 20.0
212 3.0 52.0
213 43.0 33.0
214 58.0 61.0
215 7.0 22.0
216 52.0 54.0
217 53.0 19.0
218 15.0 35.0
219 39.0 29.0
220 19.0 14.0
221 62.0 49.0
222 49.0 58.0
223 15.0 10.0
224 52.0 29.0
225 42.0 37.0
226 18.0 15.0
227 62.0 15.0
228 33.0 52.0
229 18.0 33.0
230 13.0 49.0
231 61.0 13.0
232 30.0 62.0
233 19.0 7.0
234 30.0 7.0
235 49.0 51.0
236 63.0 50.0
237 34.0 44.0
238 39.0 58.0
239 11.0 21.0
240 26.0 12.0
START_DEPOT_SECTION
1
2
3
4
5
6
7
8
9
10
11
12
13
14
15
16
17
18
19
20
21
22
23
24
25
26
27
28
29
30
-1
END_DEPOT_SECTION
31
32
33
34
35
36
37
38
39
40
41
42
43
44
45
46
47
48
49
50
51
52
53
54
55
56
57
58
59
60
-1
EOF
